unsat
((set-logic NIA)
(declare-fun k!2 () Int)
(declare-fun n!0 () Int)
(declare-fun c!3 () Int)
(declare-fun m!1 () Int)
(proof
(let ((?x699 (* (- 2) n!0)))
 (let ((?x171 (* n!0 k!2)))
 (let ((?x185 (* (- 1) ?x171)))
 (let ((?x200 (* 3 c!3)))
 (let ((?x595 (+ ?x200 ?x185 ?x699 k!2)))
 (let (($x765 (<= ?x595 0)))
 (let (($x530 (= ?x595 0)))
 (let ((?x528 (* (- 5) m!1)))
 (let ((?x124 (* (- 32) k!2)))
 (let ((?x933 (* 9 n!0)))
 (let ((?x259 (* c!3 n!0)))
 (let ((?x132 (* (- 9) ?x259)))
 (let ((?x173 (* k!2 m!1)))
 (let ((?x343 (* 2 ?x173)))
 (let ((?x172 (* m!1 m!1)))
 (let ((?x168 (* k!2 k!2)))
 (let ((?x488 (* (- 27) c!3)))
 (let ((?x273 (* 12 m!1)))
 (let ((?x195 (* 36 n!0)))
 (let ((?x747 (* 79 (* c!3 k!2 k!2))))
 (let ((?x726 (* 42 (* c!3 c!3 k!2))))
 (let ((?x753 (* 37 (* k!2 k!2 k!2))))
 (let ((?x390 (* 14 (* c!3 k!2 k!2 m!1))))
 (let ((?x137 (* (- 5) (* c!3 m!1 m!1))))
 (let ((?x359 (* 14 (* c!3 k!2 m!1 m!1))))
 (let ((?x320 (* 7 (* c!3 c!3 k!2 m!1))))
 (let ((?x467 (* 42 (* c!3 c!3 m!1))))
 (let ((?x262 (* 7 (* c!3 c!3 m!1 m!1))))
 (let ((?x216 (* 7 (* k!2 k!2 m!1 m!1))))
 (let ((?x325 (+ c!3 k!2)))
 (let ((?x235 (+ 6 m!1)))
 (let ((?x719 (+ 1 n!0)))
 (let ((?x157 (* 8 (* ?x719 ?x719 ?x235 (+ k!2 m!1) ?x325 ?x325))))
 (let ((?x270 (* 7 (* k!2 k!2 k!2 m!1))))
 (let ((?x440 (* (- 5) (* k!2 m!1 m!1))))
 (let ((?x396 (* 32 (* k!2 k!2 m!1))))
 (let ((?x125 (* 74 (* c!3 k!2 m!1))))
 (let ((?x318 (+ 36 ?x125 ?x396 ?x440 ?x172 (* 7 (* c!3 c!3 n!0 m!1 m!1)) ?x270 ?x157 ?x216 ?x262 ?x467 ?x320 ?x359 (* 42 (* n!0 k!2 k!2 k!2)) ?x137 (* 14 (* c!3 n!0 k!2 k!2 m!1)) (* 7 (* n!0 k!2 k!2 m!1 m!1)) (* 14 (* c!3 n!0 k!2 m!1 m!1)) ?x390 (* 12 (* n!0 m!1)) (* 42 (* c!3 c!3 n!0 m!1)) (* 42 (* c!3 c!3 n!0 k!2)) (* 7 (* n!0 k!2 k!2 k!2 m!1)) ?x753 (* 7 (* c!3 c!3 n!0 k!2 m!1)) ?x726 ?x747 (* n!0 m!1 m!1) (* 84 (* c!3 n!0 k!2 m!1)) (* 42 (* n!0 k!2 k!2 m!1)) (* 84 (* c!3 n!0 k!2 k!2)) ?x195 ?x273)))
 (let ((?x739 (* ?x318 (+ 13 ?x488 ?x168 (* (- 9) ?x171) ?x172 ?x343 ?x132 ?x933 ?x124 ?x528))))
 (let ((?x337 (* (- 1) m!1)))
 (let ((?x537 (* (- 1) k!2)))
 (let ((?x701 (* n!0 n!0)))
 (let ((?x448 (* 3 ?x701)))
 (let ((?x733 (+ ?x448 ?x933 ?x537 ?x337)))
 (let (($x745 (= (+ ?x200 ?x185 (* (- 1) (* n!0 m!1)) ?x699 (* 3 k!2)) 2)))
 (let ((?x623 (+ (* 6 n!0) ?x337)))
 (let (($x374 (= ?x623 (- 6))))
 (let (($x561 (not $x374)))
 (let ((?x174 (* 5 m!1)))
 (let ((?x175 (* 32 k!2)))
 (let ((?x229 (* (- 9) n!0)))
 (let ((?x258 (* 9 ?x259)))
 (let ((?x197 (* (- 2) ?x173)))
 (let ((?x169 (* (- 1) ?x172)))
 (let ((?x189 (* (- 1) ?x168)))
 (let ((?x211 (* 27 c!3)))
 (let (($x675 (= (+ ?x211 ?x189 (* 9 ?x171) ?x169 ?x197 ?x258 ?x229 ?x175 ?x174) 13)))
 (let (($x948 (or (not $x675) $x561 (not $x745) (not (= ?x733 (- 6))) (not (= ?x739 0)))))
 (let ((?x552 (+ ?x448 (* 3 n!0) ?x537)))
 (let (($x917 (= ?x552 0)))
 (let ((?x163 (* 5 k!2)))
 (let ((?x127 (* 18 c!3)))
 (let ((?x598 (+ ?x127 ?x189 ?x258 ?x229 ?x163)))
 (let (($x180 (= ?x598 4)))
 (let (($x153 (and $x374 $x180 $x530 $x917 $x948)))
 (let ((?x350 (+ 13 ?x488 ?x124 ?x528 ?x933 ?x168 (* (- 9) (* k!2 n!0)) ?x132 ?x343 ?x172)))
 (let ((?x131 (+ 36 ?x273 ?x195 ?x157 (* 42 (* k!2 k!2 m!1 n!0)) (* 42 (* c!3 c!3 k!2 n!0)) ?x216 (* 84 (* c!3 k!2 k!2 n!0)) (* 42 (* c!3 c!3 m!1 n!0)) ?x270 ?x262 ?x172 (* 12 (* m!1 n!0)) ?x726 (* 84 (* c!3 k!2 m!1 n!0)) (* 7 (* c!3 c!3 k!2 m!1 n!0)) (* 14 (* c!3 k!2 k!2 m!1 n!0)) (* 7 (* k!2 k!2 k!2 m!1 n!0)) (* 7 (* c!3 c!3 m!1 m!1 n!0)) (* 14 (* c!3 k!2 m!1 m!1 n!0)) (* 7 (* k!2 k!2 m!1 m!1 n!0)) ?x747 ?x753 ?x125 ?x396 ?x137 ?x440 (* 42 (* k!2 k!2 k!2 n!0)) ?x467 ?x390 ?x320 (* m!1 m!1 n!0) ?x359)))
 (let ((?x151 (* k!2 n!0)))
 (let ((?x974 (* (- 1) ?x151)))
 (let ((?x155 (* 3 k!2)))
 (let (($x196 (= (+ ?x211 ?x175 ?x174 ?x229 ?x189 (* 9 ?x151) ?x258 ?x197 ?x169) 13)))
 (let (($x393 (or (not (= (+ m!1 (* (- 6) n!0)) 6)) (not $x196) (not (= (+ ?x200 ?x155 ?x699 ?x974 (* (- 1) (* m!1 n!0))) 2)) (not (= (* ?x131 ?x350) 0)) (not (= (+ k!2 m!1 ?x229 (* (- 3) ?x701)) 6)))))
 (let (($x128 (= (+ m!1 (* (- 6) n!0)) 6)))
 (let (($x205 (and $x128 (= (+ ?x127 ?x163 ?x229 ?x189 ?x258) 4) (= (+ ?x200 k!2 ?x699 ?x974) 0) (= (+ k!2 (* (- 3) n!0) (* (- 3) ?x701)) 0) $x393)))
 (let (($x977 (exists ((c Int) (k Int) (m Int) (n Int) )(! (let (($x1003 (not (= (+ k m (* (- 9) n) (* (- 3) (* n n))) 6))))
 (let ((?x490 (* m m)))
 (let ((?x46 (* k k)))
 (let ((?x45 (* 9 n)))
 (let ((?x456 (* (- 5) m)))
 (let ((?x511 (+ 13 (* (- 27) c) (* (- 32) k) ?x456 ?x45 ?x46 (* (- 9) (* k n)) (* (- 9) (* c n)) (* 2 (* k m)) ?x490)))
 (let ((?x923 (* m m n)))
 (let ((?x751 (* (- 5) (* k m m))))
 (let ((?x748 (* (- 5) (* c m m))))
 (let ((?x673 (* 7 (* k k m m n))))
 (let ((?x667 (* 7 (* c c m m n))))
 (let ((?x665 (* 7 (* k k k m n))))
 (let ((?x659 (* 7 (* c c k m n))))
 (let ((?x540 (* m n)))
 (let ((?x946 (* 12 ?x540)))
 (let ((?x71 (+ c k)))
 (let ((?x74 (+ k m)))
 (let ((?x394 (+ 6 m)))
 (let ((?x379 (+ 1 n)))
 (let ((?x353 (* 8 (* ?x379 ?x379 ?x394 ?x74 ?x71 ?x71))))
 (let ((?x937 (* 36 n)))
 (let ((?x126 (+ 36 (* 12 m) ?x937 ?x353 (* 42 (* k k m n)) (* 42 (* c c k n)) (* 7 (* k k m m)) (* 84 (* c k k n)) (* 42 (* c c m n)) (* 7 (* k k k m)) (* 7 (* c c m m)) ?x490 ?x946 (* 42 (* c c k)) (* 84 (* c k m n)) ?x659 (* 14 (* c k k m n)) ?x665 ?x667 (* 14 (* c k m m n)) ?x673 (* 79 (* c k k)) (* 37 (* k k k)) (* 74 (* c k m)) (* 32 (* k k m)) ?x748 ?x751 (* 42 (* k k k n)) (* 42 (* c c m)) (* 14 (* c k k m)) (* 7 (* c c k m)) ?x923 (* 14 (* c k m m)))))
 (let ((?x52 (* k n)))
 (let ((?x267 (* (- 1) ?x52)))
 (let ((?x266 (* (- 2) n)))
 (let ((?x264 (* 3 c)))
 (let (($x618 (not (= (+ ?x264 (* 3 k) ?x266 ?x267 (* (- 1) ?x540)) 2))))
 (let ((?x162 (* c n)))
 (let ((?x164 (* 9 ?x162)))
 (let ((?x227 (* (- 1) ?x46)))
 (let ((?x226 (* (- 9) n)))
 (let ((?x439 (* 5 m)))
 (let ((?x527 (+ (* 27 c) (* 32 k) ?x439 ?x226 ?x227 (* 9 ?x52) ?x164 (* (- 2) (* k m)) (* (- 1) ?x490))))
 (let (($x531 (not (= ?x527 13))))
 (let (($x147 (= (+ m (* (- 6) n)) 6)))
 (let (($x365 (not $x147)))
 (let (($x305 (= (+ k (* (- 3) n) (* (- 3) (* n n))) 0)))
 (let (($x269 (= (+ ?x264 k ?x266 ?x267) 0)))
 (let (($x224 (= (+ (* 18 c) (* 5 k) ?x226 ?x227 ?x164) 4)))
 (and $x147 $x224 $x269 $x305 (or $x365 $x531 $x618 (not (= (* ?x126 ?x511) 0)) $x1003))))))))))))))))))))))))))))))))))))))))) :qid k!38))
 ))
 (let (($x921 (exists ((c Int) (k Int) (m Int) (n Int) )(! (let ((?x266 (* (- 2) n)))
 (let ((?x264 (* 3 c)))
 (let ((?x476 (+ ?x264 (* 4 k) (* (- 1) (* (+ 1 n) (+ k m))) m ?x266)))
 (let ((?x61 (* 3 n)))
 (let ((?x484 (* (- 1) m)))
 (let ((?x275 (* (- 1) k)))
 (let (($x355 (= (+ (* 3 (* (+ 1 n) (+ 1 n))) ?x275 ?x484 ?x61) (- 3))))
 (let (($x592 (not $x355)))
 (let ((?x226 (* (- 9) n)))
 (let ((?x439 (* 5 m)))
 (let ((?x37 (* 18 c)))
 (let ((?x475 (+ ?x37 (* 23 k) (* 9 (* (+ 1 n) (+ c k))) ?x439 ?x226 (* (- 1) (* (+ k m) (+ k m))))))
 (let ((?x74 (+ k m)))
 (let ((?x80 (* ?x74 ?x74)))
 (let ((?x45 (* 9 n)))
 (let ((?x456 (* (- 5) m)))
 (let ((?x71 (+ c k)))
 (let ((?x379 (+ 1 n)))
 (let ((?x388 (* ?x379 ?x71)))
 (let ((?x414 (* (- 9) ?x388)))
 (let ((?x771 (* (- 23) k)))
 (let ((?x708 (* (- 18) c)))
 (let ((?x353 (* 8 (* ?x379 ?x379 (+ 6 m) ?x74 ?x71 ?x71))))
 (let ((?x187 (+ (* 7 (* ?x379 (+ 6 m) ?x74 ?x71 ?x71)) (* (- 5) (* ?x74 ?x74 ?x71)) ?x353 (* ?x379 (+ 6 m) (+ 6 m)))))
 (let (($x446 (not (= (* ?x187 (+ 13 ?x708 ?x771 ?x414 ?x456 ?x45 ?x80)) 0))))
 (let (($x147 (= (+ m (* (- 6) n)) 6)))
 (let (($x365 (not $x147)))
 (let (($x566 (= (+ (* 3 (* n n)) ?x275 ?x61) 0)))
 (let ((?x46 (* k k)))
 (let ((?x227 (* (- 1) ?x46)))
 (let ((?x41 (* 5 k)))
 (and $x147 (= (+ ?x37 (* 9 (* n c)) ?x41 ?x226 ?x227) 4) (= (+ ?x264 (* (- 1) (* n k)) k ?x266) 0) $x566 (or $x365 $x446 (not (= ?x475 13)) $x592 (not (= ?x476 2))))))))))))))))))))))))))))))))))) :qid k!38))
 ))
 (let ((?x976 (lambda ((c Int) (k Int) (m Int) (n Int) )(let (($x1003 (not (= (+ k m (* (- 9) n) (* (- 3) (* n n))) 6))))
 (let ((?x490 (* m m)))
 (let ((?x46 (* k k)))
 (let ((?x45 (* 9 n)))
 (let ((?x456 (* (- 5) m)))
 (let ((?x511 (+ 13 (* (- 27) c) (* (- 32) k) ?x456 ?x45 ?x46 (* (- 9) (* k n)) (* (- 9) (* c n)) (* 2 (* k m)) ?x490)))
 (let ((?x923 (* m m n)))
 (let ((?x751 (* (- 5) (* k m m))))
 (let ((?x748 (* (- 5) (* c m m))))
 (let ((?x673 (* 7 (* k k m m n))))
 (let ((?x667 (* 7 (* c c m m n))))
 (let ((?x665 (* 7 (* k k k m n))))
 (let ((?x659 (* 7 (* c c k m n))))
 (let ((?x540 (* m n)))
 (let ((?x946 (* 12 ?x540)))
 (let ((?x71 (+ c k)))
 (let ((?x74 (+ k m)))
 (let ((?x394 (+ 6 m)))
 (let ((?x379 (+ 1 n)))
 (let ((?x353 (* 8 (* ?x379 ?x379 ?x394 ?x74 ?x71 ?x71))))
 (let ((?x937 (* 36 n)))
 (let ((?x126 (+ 36 (* 12 m) ?x937 ?x353 (* 42 (* k k m n)) (* 42 (* c c k n)) (* 7 (* k k m m)) (* 84 (* c k k n)) (* 42 (* c c m n)) (* 7 (* k k k m)) (* 7 (* c c m m)) ?x490 ?x946 (* 42 (* c c k)) (* 84 (* c k m n)) ?x659 (* 14 (* c k k m n)) ?x665 ?x667 (* 14 (* c k m m n)) ?x673 (* 79 (* c k k)) (* 37 (* k k k)) (* 74 (* c k m)) (* 32 (* k k m)) ?x748 ?x751 (* 42 (* k k k n)) (* 42 (* c c m)) (* 14 (* c k k m)) (* 7 (* c c k m)) ?x923 (* 14 (* c k m m)))))
 (let ((?x52 (* k n)))
 (let ((?x267 (* (- 1) ?x52)))
 (let ((?x266 (* (- 2) n)))
 (let ((?x264 (* 3 c)))
 (let (($x618 (not (= (+ ?x264 (* 3 k) ?x266 ?x267 (* (- 1) ?x540)) 2))))
 (let ((?x162 (* c n)))
 (let ((?x164 (* 9 ?x162)))
 (let ((?x227 (* (- 1) ?x46)))
 (let ((?x226 (* (- 9) n)))
 (let ((?x439 (* 5 m)))
 (let ((?x527 (+ (* 27 c) (* 32 k) ?x439 ?x226 ?x227 (* 9 ?x52) ?x164 (* (- 2) (* k m)) (* (- 1) ?x490))))
 (let (($x531 (not (= ?x527 13))))
 (let (($x147 (= (+ m (* (- 6) n)) 6)))
 (let (($x365 (not $x147)))
 (let (($x305 (= (+ k (* (- 3) n) (* (- 3) (* n n))) 0)))
 (let (($x269 (= (+ ?x264 k ?x266 ?x267) 0)))
 (let (($x224 (= (+ (* 18 c) (* 5 k) ?x226 ?x227 ?x164) 4)))
 (let (($x968 (and $x147 $x224 $x269 $x305 (or $x365 $x531 $x618 (not (= (* ?x126 ?x511) 0)) $x1003))))
 (let (($x491 (= (+ ?x264 (* 4 k) (* (- 1) (* ?x379 ?x74)) m ?x266) 2)))
 (let ((?x61 (* 3 n)))
 (let ((?x484 (* (- 1) m)))
 (let ((?x275 (* (- 1) k)))
 (let (($x592 (not (= (+ (* 3 (* ?x379 ?x379)) ?x275 ?x484 ?x61) (- 3)))))
 (let ((?x37 (* 18 c)))
 (let ((?x475 (+ ?x37 (* 23 k) (* 9 (* ?x379 ?x71)) ?x439 ?x226 (* (- 1) (* ?x74 ?x74)))))
 (let ((?x80 (* ?x74 ?x74)))
 (let ((?x388 (* ?x379 ?x71)))
 (let ((?x414 (* (- 9) ?x388)))
 (let ((?x771 (* (- 23) k)))
 (let ((?x708 (* (- 18) c)))
 (let ((?x187 (+ (* 7 (* ?x379 ?x394 ?x74 ?x71 ?x71)) (* (- 5) (* ?x74 ?x74 ?x71)) ?x353 (* ?x379 ?x394 ?x394))))
 (let (($x446 (not (= (* ?x187 (+ 13 ?x708 ?x771 ?x414 ?x456 ?x45 ?x80)) 0))))
 (let (($x566 (= (+ (* 3 (* n n)) ?x275 ?x61) 0)))
 (let (($x622 (= (+ ?x37 (* 9 (* n c)) (* 5 k) ?x226 ?x227) 4)))
 (let (($x409 (and $x147 $x622 (= (+ ?x264 (* (- 1) (* n k)) k ?x266) 0) $x566 (or $x365 $x446 (not (= ?x475 13)) $x592 (not $x491)))))
 (rewrite (= $x409 $x968))))))))))))))))))))))))))))))))))))))))))))))))))))))))))))
 ))
 (let (($x319 (exists ((c Int) (k Int) (m Int) (n Int) )(! (let ((?x61 (* 3 n)))
 (let ((?x484 (* (- 1) m)))
 (let ((?x275 (* (- 1) k)))
 (let (($x355 (= (+ (* 3 (* (+ 1 n) (+ 1 n))) ?x275 ?x484 ?x61) (- 3))))
 (let (($x592 (not $x355)))
 (let ((?x74 (+ k m)))
 (let ((?x80 (* ?x74 ?x74)))
 (let ((?x45 (* 9 n)))
 (let ((?x456 (* (- 5) m)))
 (let ((?x71 (+ c k)))
 (let ((?x379 (+ 1 n)))
 (let ((?x388 (* ?x379 ?x71)))
 (let ((?x414 (* (- 9) ?x388)))
 (let ((?x771 (* (- 23) k)))
 (let ((?x708 (* (- 18) c)))
 (let ((?x353 (* 8 (* ?x379 ?x379 (+ 6 m) ?x74 ?x71 ?x71))))
 (let ((?x187 (+ (* 7 (* ?x379 (+ 6 m) ?x74 ?x71 ?x71)) (* (- 5) (* ?x74 ?x74 ?x71)) ?x353 (* ?x379 (+ 6 m) (+ 6 m)))))
 (let (($x446 (not (= (* ?x187 (+ 13 ?x708 ?x771 ?x414 ?x456 ?x45 ?x80)) 0))))
 (let (($x147 (= (+ m (* (- 6) n)) 6)))
 (let (($x365 (not $x147)))
 (let ((?x56 (* 2 n)))
 (let ((?x454 (* ?x379 ?x74)))
 (let ((?x341 (* (- 3) c)))
 (let (($x457 (or (not (= (+ ?x341 (* (- 4) k) ?x454 ?x484 ?x56) (- 2))) $x365 (not (= (+ ?x708 ?x771 ?x414 ?x456 ?x45 ?x80) (- 13))) $x446 $x592)))
 (let (($x566 (= (+ (* 3 (* n n)) ?x275 ?x61) 0)))
 (let (($x330 (= (+ ?x708 (* (- 9) (* n c)) (* (- 5) k) ?x45 (* k k)) (- 4))))
 (and $x147 $x330 (= (+ ?x341 (* n k) ?x275 ?x56) 0) $x566 $x457))))))))))))))))))))))))))) :qid k!38))
 ))
 (let ((?x417 (lambda ((c Int) (k Int) (m Int) (n Int) )(let ((?x266 (* (- 2) n)))
 (let ((?x264 (* 3 c)))
 (let ((?x476 (+ ?x264 (* 4 k) (* (- 1) (* (+ 1 n) (+ k m))) m ?x266)))
 (let ((?x61 (* 3 n)))
 (let ((?x484 (* (- 1) m)))
 (let ((?x275 (* (- 1) k)))
 (let (($x355 (= (+ (* 3 (* (+ 1 n) (+ 1 n))) ?x275 ?x484 ?x61) (- 3))))
 (let (($x592 (not $x355)))
 (let ((?x226 (* (- 9) n)))
 (let ((?x439 (* 5 m)))
 (let ((?x37 (* 18 c)))
 (let ((?x475 (+ ?x37 (* 23 k) (* 9 (* (+ 1 n) (+ c k))) ?x439 ?x226 (* (- 1) (* (+ k m) (+ k m))))))
 (let ((?x74 (+ k m)))
 (let ((?x80 (* ?x74 ?x74)))
 (let ((?x45 (* 9 n)))
 (let ((?x456 (* (- 5) m)))
 (let ((?x71 (+ c k)))
 (let ((?x379 (+ 1 n)))
 (let ((?x388 (* ?x379 ?x71)))
 (let ((?x414 (* (- 9) ?x388)))
 (let ((?x771 (* (- 23) k)))
 (let ((?x708 (* (- 18) c)))
 (let ((?x353 (* 8 (* ?x379 ?x379 (+ 6 m) ?x74 ?x71 ?x71))))
 (let ((?x187 (+ (* 7 (* ?x379 (+ 6 m) ?x74 ?x71 ?x71)) (* (- 5) (* ?x74 ?x74 ?x71)) ?x353 (* ?x379 (+ 6 m) (+ 6 m)))))
 (let (($x446 (not (= (* ?x187 (+ 13 ?x708 ?x771 ?x414 ?x456 ?x45 ?x80)) 0))))
 (let (($x147 (= (+ m (* (- 6) n)) 6)))
 (let (($x365 (not $x147)))
 (let (($x566 (= (+ (* 3 (* n n)) ?x275 ?x61) 0)))
 (let ((?x46 (* k k)))
 (let ((?x227 (* (- 1) ?x46)))
 (let ((?x41 (* 5 k)))
 (let (($x409 (and $x147 (= (+ ?x37 (* 9 (* n c)) ?x41 ?x226 ?x227) 4) (= (+ ?x264 (* (- 1) (* n k)) k ?x266) 0) $x566 (or $x365 $x446 (not (= ?x475 13)) $x592 (not (= ?x476 2))))))
 (let ((?x56 (* 2 n)))
 (let ((?x454 (* ?x379 ?x74)))
 (let ((?x341 (* (- 3) c)))
 (let (($x457 (or (not (= (+ ?x341 (* (- 4) k) ?x454 ?x484 ?x56) (- 2))) $x365 (not (= (+ ?x708 ?x771 ?x414 ?x456 ?x45 ?x80) (- 13))) $x446 $x592)))
 (let (($x330 (= (+ ?x708 (* (- 9) (* n c)) (* (- 5) k) ?x45 ?x46) (- 4))))
 (let (($x483 (and $x147 $x330 (= (+ ?x341 (* n k) ?x275 ?x56) 0) $x566 $x457)))
 (rewrite (= $x483 $x409)))))))))))))))))))))))))))))))))))))))))
 ))
 (let (($x112 (exists ((c Int) (k Int) (m Int) (n Int) )(! (let ((?x66 (+ n 1)))
 (let ((?x99 (+ m 6)))
 (let ((?x74 (+ k m)))
 (let ((?x71 (+ c k)))
 (let ((?x106 (+ (- (* 7 ?x71 ?x71 ?x74 ?x99 ?x66) (* 5 ?x71 ?x74 ?x74)) (* 8 ?x71 ?x71 ?x74 ?x99 ?x66 ?x66) (* ?x99 ?x99 ?x66))))
 (let ((?x80 (* ?x74 ?x74)))
 (let ((?x78 (- (- (- 4 (* 18 ?x71)) (* 9 ?x71 ?x66)) (* 5 ?x74))))
 (let ((?x81 (+ ?x78 (* 9 ?x66) ?x80)))
 (let (($x90 (= (+ (- (+ (* (- 3) ?x71) (* ?x74 ?x66)) ?x74) (* 2 ?x66)) 0)))
 (let (($x110 (or (not (= (- (+ (- 6) m 6) (* 6 ?x66)) 0)) (not (= ?x81 0)) (not $x90) (not (= (+ (- (* 3 ?x66 ?x66) ?x74) (* 3 ?x66)) 0)) (not (= (* ?x81 ?x106) 0)))))
 (let (($x58 (= (+ (- (+ (* (- 3) c) (* k n)) k) (* 2 n)) 0)))
 (let ((?x46 (* k k)))
 (let ((?x45 (* 9 n)))
 (let ((?x41 (* 5 k)))
 (let ((?x47 (+ (- (- (- 4 (* 18 c)) (* 9 c n)) ?x41) ?x45 ?x46)))
 (and (= (- (+ (- 6) m) (* 6 n)) 0) (= ?x47 0) $x58 (= (+ (- (* 3 n n) k) (* 3 n)) 0) $x110)))))))))))))))) :qid k!38))
 ))
 (let ((?x116 (lambda ((c Int) (k Int) (m Int) (n Int) )(let ((?x61 (* 3 n)))
 (let ((?x484 (* (- 1) m)))
 (let ((?x275 (* (- 1) k)))
 (let (($x355 (= (+ (* 3 (* (+ 1 n) (+ 1 n))) ?x275 ?x484 ?x61) (- 3))))
 (let (($x592 (not $x355)))
 (let ((?x74 (+ k m)))
 (let ((?x80 (* ?x74 ?x74)))
 (let ((?x45 (* 9 n)))
 (let ((?x456 (* (- 5) m)))
 (let ((?x71 (+ c k)))
 (let ((?x379 (+ 1 n)))
 (let ((?x388 (* ?x379 ?x71)))
 (let ((?x414 (* (- 9) ?x388)))
 (let ((?x771 (* (- 23) k)))
 (let ((?x708 (* (- 18) c)))
 (let ((?x353 (* 8 (* ?x379 ?x379 (+ 6 m) ?x74 ?x71 ?x71))))
 (let ((?x187 (+ (* 7 (* ?x379 (+ 6 m) ?x74 ?x71 ?x71)) (* (- 5) (* ?x74 ?x74 ?x71)) ?x353 (* ?x379 (+ 6 m) (+ 6 m)))))
 (let (($x446 (not (= (* ?x187 (+ 13 ?x708 ?x771 ?x414 ?x456 ?x45 ?x80)) 0))))
 (let (($x147 (= (+ m (* (- 6) n)) 6)))
 (let (($x365 (not $x147)))
 (let ((?x56 (* 2 n)))
 (let ((?x454 (* ?x379 ?x74)))
 (let ((?x341 (* (- 3) c)))
 (let (($x457 (or (not (= (+ ?x341 (* (- 4) k) ?x454 ?x484 ?x56) (- 2))) $x365 (not (= (+ ?x708 ?x771 ?x414 ?x456 ?x45 ?x80) (- 13))) $x446 $x592)))
 (let (($x566 (= (+ (* 3 (* n n)) ?x275 ?x61) 0)))
 (let (($x330 (= (+ ?x708 (* (- 9) (* n c)) (* (- 5) k) ?x45 (* k k)) (- 4))))
 (let (($x483 (and $x147 $x330 (= (+ ?x341 (* n k) ?x275 ?x56) 0) $x566 $x457)))
 (let ((?x66 (+ n 1)))
 (let ((?x99 (+ m 6)))
 (let ((?x106 (+ (- (* 7 ?x71 ?x71 ?x74 ?x99 ?x66) (* 5 ?x71 ?x74 ?x74)) (* 8 ?x71 ?x71 ?x74 ?x99 ?x66 ?x66) (* ?x99 ?x99 ?x66))))
 (let ((?x78 (- (- (- 4 (* 18 ?x71)) (* 9 ?x71 ?x66)) (* 5 ?x74))))
 (let ((?x81 (+ ?x78 (* 9 ?x66) ?x80)))
 (let (($x90 (= (+ (- (+ (* (- 3) ?x71) (* ?x74 ?x66)) ?x74) (* 2 ?x66)) 0)))
 (let (($x110 (or (not (= (- (+ (- 6) m 6) (* 6 ?x66)) 0)) (not (= ?x81 0)) (not $x90) (not (= (+ (- (* 3 ?x66 ?x66) ?x74) (* 3 ?x66)) 0)) (not (= (* ?x81 ?x106) 0)))))
 (let ((?x46 (* k k)))
 (let ((?x41 (* 5 k)))
 (let ((?x47 (+ (- (- (- 4 (* 18 c)) (* 9 c n)) ?x41) ?x45 ?x46)))
 (let (($x111 (and (= (- (+ (- 6) m) (* 6 n)) 0) (= ?x47 0) (= (+ (- (+ (* (- 3) c) (* k n)) k) ?x56) 0) (= (+ (- (* 3 n n) k) ?x61) 0) $x110)))
 (rewrite (= $x111 $x483)))))))))))))))))))))))))))))))))))))))))
 ))
 (let ((@x113 (asserted $x112)))
 (let ((@x344 (mp (mp @x113 (quant-intro (proof-bind ?x116) (= $x112 $x319)) $x319) (rewrite (= $x319 $x319)) $x319)))
 (let ((@x1002 (mp (mp @x344 (quant-intro (proof-bind ?x417) (= $x319 $x921)) $x921) (quant-intro (proof-bind ?x976) (= $x921 $x977)) $x977)))
 (let ((@x564 (mp (mp~ @x1002 (sk (~ $x977 $x205)) $x205) (rewrite (= $x205 $x153)) $x153)))
 (let ((@x234 (and-elim @x564 $x530)))
 (let ((@x237 (unit-resolution ((_ th-lemma arith triangle-eq) (or (not $x530) $x765)) @x234 $x765)))
 (let (($x250 (>= ?x595 0)))
 (let ((@x245 (unit-resolution ((_ th-lemma arith triangle-eq) (or (not $x530) $x250)) @x234 $x250)))
 (let (($x996 (<= c!3 1)))
 (let (($x714 (<= ?x598 4)))
 (let ((@x449 (and-elim @x564 $x180)))
 (let ((@x314 (unit-resolution ((_ th-lemma arith triangle-eq) (or (not $x180) $x714)) @x449 $x714)))
 (let (($x485 (>= ?x598 4)))
 (let ((@x571 (unit-resolution ((_ th-lemma arith triangle-eq) (or (not $x180) $x485)) @x449 $x485)))
 (let (($x685 (<= ?x623 (- 6))))
 (let ((@x324 (and-elim @x564 $x374)))
 (let ((@x286 (unit-resolution ((_ th-lemma arith triangle-eq) (or $x561 $x685)) @x324 $x685)))
 (let (($x744 (>= ?x623 (- 6))))
 (let ((@x502 (unit-resolution ((_ th-lemma arith triangle-eq) (or $x561 $x744)) @x324 $x744)))
 (let (($x761 (<= ?x733 (- 6))))
 (let (($x766 (<= ?x552 0)))
 (let ((@x985 (and-elim @x564 $x917)))
 (let ((@x504 (unit-resolution ((_ th-lemma arith assign-bounds 1 1) (or $x761 (not $x766) (not $x685))) (unit-resolution ((_ th-lemma arith triangle-eq) (or (not $x917) $x766)) @x985 $x766) @x286 $x761)))
 (let (($x762 (>= ?x733 (- 6))))
 (let (($x767 (>= ?x552 0)))
 (let ((@x428 ((_ th-lemma arith farkas -1 1 1) (hypothesis (not $x762)) @x502 (unit-resolution ((_ th-lemma arith triangle-eq) (or (not $x917) $x767)) @x985 $x767) false)))
 (let ((@x184 (lemma @x428 $x762)))
 (let ((@x2189 ((_ th-lemma arith) (hypothesis (not $x996)) @x184 @x504 @x571 @x314 @x502 @x286 @x184 @x504 @x502 @x286 @x502 @x286 @x571 @x314 @x502 @x286 @x184 @x504 @x571 @x314 @x184 @x504 @x571 @x314 @x502 @x286 @x184 @x504 @x571 @x314 @x571 @x314 @x245 @x237 @x502 @x286 @x184 @x504 @x184 @x504 @x502 @x286 @x245 @x237 @x571 @x314 false)))
 (let ((@x2236 (lemma @x2189 $x996)))
 (let (($x296 (<= c!3 0)))
 (let (($x278 (not $x296)))
 (let (($x573 (>= c!3 0)))
 (let (($x1666 (<= n!0 0)))
 (let (($x1705 (not $x1666)))
 (let (($x1797 (<= n!0 (- 1))))
 (let (($x1890 (not $x1797)))
 (let (($x549 (>= n!0 0)))
 (let (($x1389 (<= n!0 (- 2))))
 (let (($x1393 (not $x1389)))
 (let (($x1539 (>= (+ (* 4 c!3) (* 2 ?x259) ?x699 k!2) 2)))
 (let (($x1536 (not $x1539)))
 (let (($x1477 (>= (+ (* 20 c!3) (* 10 ?x259) ?x448 (* (- 4) n!0) ?x163 ?x337) 4)))
 (let (($x1483 (not $x1477)))
 (let ((@x1392 (hypothesis $x1389)))
 (let ((@x1484 ((_ th-lemma arith) @x502 @x1392 (hypothesis $x1477) @x502 @x286 @x184 @x504 @x502 @x286 @x502 @x286 @x502 @x286 @x571 @x314 @x184 @x504 @x502 @x286 @x245 @x237 @x184 @x504 @x502 @x286 @x184 @x504 false)))
 (let ((@x1542 (unit-resolution (lemma @x1484 (or $x1483 $x1393)) @x1392 $x1483)))
 (let (($x1057 (>= ?x701 0)))
 (let ((@x1535 ((_ th-lemma arith farkas 1/3 -1/3 5/3 1) @x502 (hypothesis $x1483) (hypothesis $x1539) (lemma ((_ th-lemma arith farkas 1) (hypothesis (not $x1057)) false) $x1057) false)))
 (let (($x1099 (>= ?x168 0)))
 (let ((@x299 (lemma ((_ th-lemma arith farkas 1) (hypothesis (not $x1099)) false) $x1099)))
 (let ((@x1544 ((_ th-lemma arith farkas 3/4 -1/4 1/4 -1/2 -1/2 1) @x1392 @x184 @x1542 @x571 @x299 (unit-resolution (lemma @x1535 (or $x1536 $x1477)) @x1542 $x1536) false)))
 (let (($x737 (not $x549)))
 (let ((@x514 (hypothesis $x737)))
 (let (($x455 (>= ?x259 1)))
 (let (($x1025 (<= n!0 5)))
 (let (($x410 (not $x1025)))
 (let ((@x478 (hypothesis (not $x455))))
 (let (($x1009 (<= n!0 4)))
 (let (($x578 (not $x1009)))
 (let ((@x928 (hypothesis $x1009)))
 (let (($x982 (<= n!0 3)))
 (let (($x263 (not $x982)))
 (let ((@x244 (hypothesis $x982)))
 (let (($x322 (<= m!1 20)))
 (let (($x706 (not $x322)))
 (let (($x474 (<= m!1 19)))
 (let (($x221 (not $x474)))
 (let (($x576 (<= m!1 18)))
 (let (($x749 (not $x576)))
 (let ((@x462 (hypothesis $x576)))
 (let (($x458 (<= n!0 1)))
 (let (($x927 (not $x458)))
 (let ((@x415 (hypothesis $x458)))
 (let (($x347 (<= m!1 7)))
 (let (($x776 (not $x347)))
 (let (($x720 (<= ?x235 12)))
 (let (($x380 (not $x720)))
 (let (($x572 (<= k!2 0)))
 (let (($x518 (not $x572)))
 (let (($x559 (>= k!2 0)))
 (let ((@x340 (lemma ((_ th-lemma arith) @x514 @x502 @x514 (hypothesis (not $x559)) @x504 false) (or $x559 $x549))))
 (let ((@x248 (unit-resolution @x340 @x514 $x559)))
 (let ((@x550 (lemma ((_ th-lemma arith farkas -3/2 -1/2 1/6 1/6 -1 1 1) @x478 @x514 @x248 @x571 @x237 @x248 (hypothesis $x572) false) (or $x518 $x455 $x549))))
 (let ((@x582 (unit-resolution @x550 @x514 @x478 $x518)))
 (let ((@x452 (lemma ((_ th-lemma arith farkas 1 1 1) @x478 (hypothesis (not $x573)) @x514 false) (or $x573 $x455 $x549))))
 (let ((@x562 ((_ th-lemma arith farkas -2 1 3 -1 1 1) @x514 @x582 (unit-resolution @x452 @x514 @x478 $x573) @x237 @x514 @x582 false)))
 (let ((@x345 (unit-resolution (lemma @x562 (or $x549 $x455)) @x478 $x549)))
 (let ((@x727 ((_ th-lemma arith farkas -1 -1/6 1/6 -3/2 1/6 1 1 1) @x237 @x504 @x502 @x478 @x571 @x345 (hypothesis $x720) @x286 false)))
 (let ((@x321 (lemma ((_ th-lemma arith farkas 1 1 1 1) (hypothesis $x380) @x502 @x286 (hypothesis $x347) false) (or $x776 $x720))))
 (let ((@x144 (unit-resolution @x321 (unit-resolution (lemma @x727 (or $x380 $x455)) @x478 $x380) $x776)))
 (let ((@x222 (lemma ((_ th-lemma arith farkas -1 1/3 1/3 1/3 1/3 1/9 1/9 1 1 1) @x478 @x144 @x502 @x415 @x245 @x144 @x502 @x144 @x502 @x415 false) (or $x927 $x455))))
 (let ((@x541 (unit-resolution @x222 @x478 $x927)))
 (let ((@x960 ((_ th-lemma arith farkas 3 1 11/6 1 3 3 3 3 5/6 1 1 1) @x541 @x504 @x502 @x245 @x478 @x541 @x462 @x286 @x144 @x541 @x462 @x286 false)))
 (let ((@x984 (lemma ((_ th-lemma arith farkas 1 1 1 1) (hypothesis $x749) @x502 @x286 (hypothesis $x474) false) (or $x221 $x576))))
 (let ((@x909 (unit-resolution @x984 (unit-resolution (lemma @x960 (or $x749 $x455)) @x478 $x749) $x221)))
 (let ((@x312 (lemma ((_ th-lemma arith farkas 1 1 1 1) (hypothesis $x221) @x502 @x286 (hypothesis $x322) false) (or $x706 $x474))))
 (let ((@x777 (unit-resolution @x312 @x909 $x706)))
 (let ((@x575 ((_ th-lemma arith farkas 1 1 1 1 1 1 1 8 6 6 6 6 6 6 2 2 1) @x777 @x502 @x244 @x777 @x502 @x244 @x245 @x345 @x777 @x502 @x244 @x777 @x502 @x244 @x504 @x502 @x478 false)))
 (let ((@x560 (unit-resolution (lemma @x575 (or $x263 $x455)) @x478 $x263)))
 (let ((@x975 ((_ th-lemma arith farkas 1 1 4/3 4/3 44/3 4/3 12 12 12 12 4 4 1) @x560 @x928 @x560 @x928 @x345 @x245 @x560 @x928 @x560 @x928 @x504 @x502 @x478 false)))
 (let (($x678 (not $x573)))
 (let ((@x517 (hypothesis $x678)))
 (let ((@x402 ((_ th-lemma arith) @x517 @x478 @x571 @x144 @x502 @x517 @x478 @x571 @x144 @x502 @x144 @x502 @x517 @x571 @x517 false)))
 (let ((@x1024 (hypothesis $x296)))
 (let ((@x988 (hypothesis $x573)))
 (let ((@x1028 ((_ th-lemma arith) @x245 @x237 @x502 @x286 @x988 @x1024 @x184 @x504 @x245 @x237 @x184 @x504 @x502 @x286 @x988 @x1024 @x245 @x237 @x988 @x1024 @x502 @x286 @x502 @x286 @x184 @x504 @x184 @x504 @x988 @x1024 @x245 @x237 @x571 @x314 false)))
 (let ((@x1037 (lemma @x1028 (or $x278 $x678))))
 (let ((@x300 (unit-resolution @x1037 (unit-resolution (lemma @x402 (or $x573 $x455)) @x478 $x573) $x278)))
 (let ((@x408 ((_ th-lemma arith farkas 5 1 1 1) @x300 (unit-resolution (lemma @x975 (or $x578 $x455)) @x478 $x578) (hypothesis $x1025) @x478 false)))
 (let (($x313 (<= c!3 2)))
 (let (($x1026 (not $x313)))
 (let (($x1033 (not $x996)))
 (let ((@x284 (lemma ((_ th-lemma arith farkas 1 1 1 1) @x541 @x300 (hypothesis $x996) @x478 false) (or $x1033 $x455))))
 (let ((@x1023 ((_ th-lemma arith farkas 2 1 1 1) @x541 (unit-resolution @x284 @x478 $x1033) (hypothesis $x313) @x478 false)))
 (let ((@x315 ((_ th-lemma arith farkas 1 1 1) @x478 (unit-resolution (lemma @x1023 (or $x1026 $x455)) @x478 $x1026) (unit-resolution (lemma @x408 (or $x410 $x455)) @x478 $x410) false)))
 (let ((@x1016 (lemma @x315 $x455)))
 (let ((@x1372 (hypothesis $x1393)))
 (let ((?x1286 (+ (* 8 c!3) (* 4 ?x259) (* 8 ?x701) (* 25 n!0) (* (- 4) m!1))))
 (let ((@x1391 ((_ th-lemma arith farkas 1 2 2 2 2 1/4 -1/4 1 1 1 1) @x286 @x1372 @x514 @x1372 @x514 @x514 ((_ th-lemma arith gomory-cut 3/5 1 4/5 1/5 1/5 -3/4) @x514 @x184 @x502 @x571 @x299 @x514 (>= ?x1286 (- 17))) @x1372 @x514 @x1016 @x514 false)))
 (let ((@x1885 (unit-resolution ((_ th-lemma arith farkas 1 1) (or $x1890 $x737)) (unit-resolution (lemma @x1391 (or $x1389 $x549)) (lemma @x1544 $x1393) $x549) $x1890)))
 (let (($x1699 (>= ?x259 2)))
 (let ((@x1678 ((_ th-lemma arith) @x184 @x504 @x502 @x286 @x502 @x286 @x1016 (hypothesis (not $x1699)) @x245 @x237 @x502 @x286 @x571 @x314 @x502 @x286 false)))
 (let ((@x1692 (lemma @x1678 $x1699)))
 (let ((@x1909 (lemma ((_ th-lemma arith farkas 1 1 1) @x1692 (hypothesis $x1890) (hypothesis $x1666) false) (or $x1797 $x1705))))
 (let ((@x1921 (lemma ((_ th-lemma arith farkas 1 1 1) @x1692 @x517 (unit-resolution @x1909 @x1885 $x1705) false) $x573)))
 (let ((@x2253 (unit-resolution @x1037 @x1921 $x278)))
 ((_ th-lemma arith) @x571 @x314 @x2253 @x2236 @x2253 @x2236 @x2253 @x2236 @x2253 @x2236 @x2253 @x2236 @x2253 @x2236 @x184 @x504 @x502 @x286 @x184 @x504 @x2253 @x2236 @x502 @x286 @x2253 @x2236 @x2253 @x2236 @x2253 @x2236 @x2253 @x2236 @x502 @x286 @x2253 @x2236 @x2253 @x2236 @x2253 @x2236 @x2253 @x2236 @x2253 @x2236 @x502 @x286 @x184 @x504 @x502 @x286 @x2253 @x2236 @x2253 @x2236 @x2253 @x2236 @x2253 @x2236 @x2253 @x2236 @x2253 @x2236 @x2253 @x2236 @x2253 @x2236 @x502 @x286 @x184 @x504 @x2253 @x2236 @x2253 @x2236 @x245 @x237 false))))))))))))))))))))))))))))))))))))))))))))))))))))))))))))))))))))))))))))))))))))))))))))))))))))))))))))))))))))))))))))))))))))))))))))))))))))))))))))))))))))))))))))))))))))))))))))))))))))))))))))))))))

(:added-eqs                 157
 :arith-assert-diseq        116
 :arith-assert-lower        1615
 :arith-assert-upper        969
 :arith-bound-prop          35
 :arith-branch-var          57
 :arith-conflicts           86
 :arith-eq-adapter          26
 :arith-fixed-eqs           238
 :arith-gcd-tests           615
 :arith-gomory-cuts         30
 :arith-grobner             80
 :arith-ineq-splits         57
 :arith-max-min             13697
 :arith-nonlinear-bounds    648
 :arith-nonlinear-horner    907
 :arith-num-rows            25
 :arith-offset-eqs          7
 :arith-patches             120
 :arith-patches_succ        7
 :arith-pivots              1066
 :arith-pseudo-nonlinear    324
 :arith-row-summations      6223
 :arith-tableau-max-columns 100
 :arith-tableau-max-rows    25
 :conflicts                 104
 :decisions                 1051
 :del-clause                162
 :final-checks              298
 :max-memory                4.36
 :memory                    3.37
 :minimized-lits            22
 :mk-bool-var               816
 :mk-clause                 244
 :num-allocs                6889400
 :num-checks                1
 :propagations              960
 :restarts                  1
 :rlimit-count              426653
 :time                      0.12
 :total-time                0.13)
